!RHF def2-SVP TightSCF PAL16 
*xyz 0 1
C -3.147903092819103 -1.4785713838764514 0.11859940542374812
N -2.3305359622597623 -0.29663834732121436 0.3983925271835121
C -2.9575564519485478 0.8916354915811935 -0.17904090929080668
C -0.84763754044392 -0.45865693109811745 0.17530791528861253
C -0.32770465948533917 -1.2851455629028021 1.3813949595108261
C -0.487278064576093 -1.2494119728678974 -1.122238501134484
O -0.8448116311499004 -0.5491604216630404 -2.3100172705536286
C -0.11848526280215936 0.9389099230346281 0.18078748979767073
C 1.3979573673887031 0.9539579442990918 0.1297974503671705
C 2.070048434567365 0.9472068763272367 -1.0994444856580958
C 3.4660280816753075 0.9688434147021686 -1.1468555774447786
C 4.209960900566913 1.0048079066454996 0.034866987089556774
Cl 5.9323566117505795 1.0275746401924668 -0.09844329343491284
C 3.551552259853017 1.0224813078992685 1.2680639622230665
Cl 4.401329452568153 1.0698274916977455 2.7721846513129336
C 2.1525735612197354 1.0007098983382956 1.3121049623418164
H -4.156583023325753 -1.3452928428334512 0.5273739228649469
H -2.7545189974776667 -2.3807569272668307 0.5945933604735218
H -3.249078675691477 -1.6691561195033975 -0.9550286900626046
H -4.028208244550295 0.9177354347057585 0.058152771116708434
H -2.8604389237390366 0.9368562515625605 -1.2669724333167531
H -2.552747198107208 1.8122683113242835 0.25200895561689834
H 0.7482571151492649 -1.4757777669797623 1.3073318780824463
H -0.7992693587809634 -2.2708141531759978 1.4480278159688373
H -0.5117145381487114 -0.7634849121936548 2.327997482269705
H -0.9633843656806784 -2.235841254156674 -1.1491220449553685
H 0.5888189681754479 -1.4453941501735985 -1.1713385094926265
H -1.816049364644496 -0.5317947421034213 -2.3364311717405015
H -0.46810314356185473 1.5476695912189071 -0.6640849700021305
H -0.41794072595127163 1.4941428082141144 1.081571078996286
H 1.5079774474490613 0.9227761014948143 -2.032992993740004
H 3.96639935887548 0.9585840952473751 -2.1123577566778016
H 1.64668966590492 1.0199099996308538 2.2758110315762714
*
