!RHF def2-SVP TightSCF PAL16 
*xyz 0 1
N 2.633416156256788 2.0202377164702714 0.35031487411228257
C 2.5311314051667195 0.6598098580406723 0.370930144048118
O 2.981666948947121 0.017968178863294614 1.3063733910195405
N 1.8422234685220429 0.1830797473078499 -0.7062440195188229
C 1.6584208324232543 -1.1838814068822214 -0.8277874504330306
O 2.6148527227188283 -1.9547510014998306 -0.9218920182242211
C 0.20675089499503907 -1.6256540106887876 -1.0759474420574948
Cl -0.002416689733286149 -3.348915167477781 -0.6491825383947304
C -0.8403499450055897 -0.8010756026469699 -0.34896556750395874
C -1.8626120669983923 -0.16590149514159175 -1.0727240981438393
C -2.8141226357199973 0.6172491697906847 -0.4171023251845945
C -2.758844840392885 0.772416062919159 0.9663131484155827
C -1.7571107514684343 0.1397086048143553 1.6985118587346937
C -0.8053005825903797 -0.6456566666362228 1.047762391958663
H 3.2217939629184755 2.3626962120423305 1.1031739088357613
H 2.8636100234837154 2.4302544721803563 -0.545262733435159
H 1.039579538214316 0.7700143603446548 -0.8829106746888153
H 0.0484678501669702 -1.557964649547673 -2.1586467007448653
H -1.935955170217589 -0.28179395993237877 -2.1526488854977424
H -3.6063883717878262 1.1005793145980152 -0.9840388700009132
H -3.503867153746061 1.377803423778736 1.4768429736096962
H -1.719675839273701 0.25128723037376943 2.7797837701288097
H -0.03526975687942373 -1.1375103910708575 1.6433468629648036
*
