!RHF def2-SVP TightSCF PAL16 
*xyz 0 1
C -3.056694935877488 0.3091909869161513 2.1560948906366115
C -2.54940497921039 -0.10675356841254274 0.810016103306056
O -3.1229365307664754 -0.8822551322242046 0.06102253825700801
O -1.3649313880644984 0.5052315517191189 0.5473559815683025
C -0.7465634080401706 0.2085373969135822 -0.734520070910262
C 0.691213707004113 -0.2245049228915781 -0.4379866086594805
C 1.2656180663864336 -1.2846526301775432 -1.1579620951951737
C 2.5780355194214817 -1.6940008497865369 -0.9037416987071559
C 3.3393063594391776 -1.0559696073954365 0.0779109378405013
Cl 4.9518994504392975 -1.6165604582817739 0.3378215526976662
C 2.781627674844419 -0.00441308243880115 0.8091846637564761
Cl 3.6542891840392238 0.8306177176862534 2.044714731017443
C 1.4668256180435826 0.40538600517795387 0.5518482269552251
C -0.8945218651639405 1.4117588126800307 -1.723321500455342
Cl -2.635527106583781 1.763579355993785 -2.044366233667904
Cl -0.13068230344334666 1.0567535933120338 -3.315555451101171
Cl -0.16584547476212957 2.926897029882207 -1.0794926186685492
H -4.005471270193824 -0.19612699093814634 2.3578481512222296
H -3.2263963968801765 1.3887043888522097 2.170137229939483
H -2.33815070137244 0.021957140460769825 2.927818389736463
H -1.2399634148117868 -0.6614939585022065 -1.1883364597284525
H 0.6986630757916139 -1.8079836355857428 -1.9278637923408863
H 3.0016402581799504 -2.5161229898715316 -1.4770994770321648
H 1.0479708615796641 1.222223846912352 1.1384726095337048
*
