!RHF def2-SVP TightSCF PAL16 
*xyz 0 1
C -2.852277115589835 3.371990575146206 0.05461649691096296
C -2.459225619493294 2.001568051406147 0.601959130192329
C -0.9689111668713976 1.7176813852220778 0.34303924687121085
C -0.6355008680130501 0.21892966457476096 0.24728888627690004
O 0.7263678792175913 0.05147189283663678 0.6863444072905361
C 1.3684975380905946 -1.072779108543825 0.23735351981327468
O 0.8749237333045641 -1.914286593500009 -0.50332834018025
C 2.7993251085735107 -1.1185276163593216 0.8141028554610853
O 3.0151546998447314 -0.1855702986166887 1.8774551511439526
C 3.8508353757342757 -0.9488959480290708 -0.2666723147030635
C 4.578482600533386 0.24378049013628864 -0.41374755318684736
C 5.534189171760676 0.3776655407697592 -1.4238267344666822
C 5.7706426174869065 -0.674435592531453 -2.3058098976636723
C 5.050150474430406 -1.8597937180610113 -2.18127720605187
C 4.097432428062007 -1.9967491866602451 -1.169631916045204
C -1.5792341285906935 -0.599935211892914 1.1299793825985778
C -3.0521776930438262 -0.4877106563492062 0.6628057913412404
C -3.9727357021018572 -0.6992034441934226 1.8774798405468887
C -3.35976287775128 -1.590643458478677 -0.36572997238282773
C -3.3406349399958297 0.8921792439949451 0.015094489366480997
H -2.2351552022102763 4.158849176480454 0.5009899696051543
H -3.899089354246655 3.5954770568672663 0.2843145068421484
H -2.727540608915313 3.419169291155076 -1.0324142885104732
H -2.618724326451398 2.0278686946988285 1.687821908860891
H -0.6392019412639584 2.19452631623118 -0.5912465591866166
H -0.3751268909276205 2.1958317919158583 1.133747152552708
H -0.7256369847982616 -0.08811775090956483 -0.8029425713003792
H 2.91902963779487 -2.106194289026259 1.276187533940348
H 2.292053945134506 0.4695670730669154 1.8018787272677348
H 4.419860993821612 1.0768256395906324 0.2682246292383247
H 6.0984196971633455 1.3023276681610045 -1.5167057169089895
H 6.516497783155123 -0.5699476576997321 -3.089397543233948
H 5.232278864064141 -2.6813144645597866 -2.8673095453920876
H 3.5460653225184093 -2.9326635722515286 -1.0911759856375847
H -1.4732880579806085 -0.2422586483330751 2.164855641928422
H -1.2628987171594912 -1.6512788308765194 1.1683871900316083
H -3.7743524172234193 -1.6637997888831755 2.3584131187658306
H -3.8273827317425657 0.08380790299189163 2.6291181557288525
H -5.028969922126066 -0.6841520966986062 1.5829177551119176
H -2.7133172042701093 -1.5070060308095776 -1.245335870973619
H -4.399571726670232 -1.5317150205645889 -0.7091165853455327
H -3.2062597036916007 -2.586630482342508 0.06383084483890092
H -3.1615836602956375 0.8456532036677897 -1.0672817820185163
H -4.401648309267043 1.1484388072585705 0.13257744968688853
*
