!RHF def2-SVP TightSCF PAL16 
*xyz 0 1
C 3.6841554392696056 -1.708556841852623 -1.2213046100499534
O 3.6823516087281836 -0.3678124298874957 -0.7493166132456764
C 2.4674950015839423 0.20805287201012748 -0.48678285939516275
C 1.2337532830817923 -0.3716428199173286 -0.7926264487045607
C 0.02484346528700502 0.2864628221834108 -0.4932186647166393
C -1.2880693193759216 -0.3924551707770308 -0.8353510366555265
C -1.8738102022540468 -1.2010184621852393 0.3408961226576936
C -3.3549560583386677 -1.4967031746996935 0.1008633060746346
N -1.1561063173483195 -2.4724513323557207 0.5237924966934611
C 0.05308677985133911 1.5422378644509567 0.13909610261441116
O -1.1678188231937479 2.099737111045935 0.41715302927605735
C -1.1788480599885767 3.3527452876739097 1.0894598399984863
C 1.2833540473929208 2.1302527123672768 0.437377391983384
C 2.477168151699621 1.4690978217395299 0.1228986502876785
Br 4.109306842213113 2.3428160456264786 0.566047673939725
H 3.183642341030379 -2.379757276072962 -0.5154140204565711
H 4.72636354607919 -2.0316404636499557 -1.304385950795273
H 3.23618142395024 -1.7744121116149956 -2.218108070840245
H 1.1741984601292679 -1.3494393033467158 -1.2608009980301387
H -2.0041751703703468 0.37250266289186723 -1.1632982657271937
H -1.1526385152672818 -1.0374469125881096 -1.7146169794010604
H -1.784965335951584 -0.6244457569205454 1.269327841466117
H -3.782640949016093 -2.0673004007641094 0.9327925969878531
H -3.50659969067298 -2.0724046576086375 -0.8191529055104962
H -3.924759652330251 -0.5652832099928865 0.01321107629317481
H -1.3285153298960772 -3.0820513956173103 -0.27432583513224074
H -1.5370916437863158 -2.9577017429279424 1.3356122585927188
H -0.7036885889751252 3.27796072858257 2.073127770126787
H -0.709871366450791 4.131579650672522 0.4793093668579494
H -2.2236306555620042 3.6378624971908766 1.246185438499816
H 1.3422852884815433 3.101215386343792 0.9165160971386187
*
