!RHF def2-SVP TightSCF PAL16 
*xyz 0 1
C -2.3700693112734617 -1.130499091740145 3.2463876190731726
C -2.594446750395864 -0.5917427422149084 2.0412419389875747
C -1.6066049576325254 0.3029658034016871 1.334398548753085
C -0.9490463881912937 -0.3763639919845631 0.1061967296781004
C -1.9556596595228766 -0.4425181259365818 -1.062699192516089
N -1.4655713301058306 -1.2616097428435296 -2.178230569982467
C -2.311074234281361 -1.095911852135311 -3.3583453627096285
C -0.04667326536697111 -1.068688401547381 -2.4832365078739933
C 0.5165099702014635 0.22943329963472248 -1.915599312003843
C 0.4205634740645045 0.25785438756065515 -0.3600502549389193
O 1.5182589800292072 -0.6502465750798773 0.020119982589286933
C 1.7305291727494125 -1.048742321539909 1.2993907040101433
O 1.1325257642879565 -0.6630443663248645 2.2908035178664847
C 2.8424333565429674 -2.064302237755788 1.3399573322244138
C 2.3628225322921637 -3.412526301509927 0.840296073412338
C 0.7202077448766225 1.7176586889470564 0.03648967432788803
C 1.9573390096270078 2.1019278450897048 0.5833339409554712
C 2.226392857509813 3.4343170183069778 0.9130849731145454
C 1.2707039406526264 4.418436435996436 0.6869517881313218
C 0.04940682658480023 4.072238786991215 0.121149918549099
C -0.21807543440271462 2.740048420858513 -0.20718308285820838
H -3.110594178503009 -1.7641201633708352 3.7232014292645434
H -1.4373678720195002 -0.9575545526199277 3.777326356291493
H -3.541022649391498 -0.7921491751305826 1.5455441379215364
H -0.8514709756538116 0.6391326220078962 2.051009561086848
H -2.153828398111962 1.2022817713473317 1.0290889140452069
H -0.7478590157972429 -1.4211604967680451 0.38860356817500236
H -2.1944083635532228 0.5738319458453798 -1.4009412315170777
H -2.897908714952466 -0.8837146779896218 -0.7181487766603225
H -2.249106622880764 -0.08110807728732262 -3.767326700256011
H -3.35867261365554 -1.3084633736695233 -3.1174334016911227
H -2.0216523129065003 -1.8042186580119655 -4.142633025612443
H 0.14321711728221995 -1.1032719333545689 -3.5635685608037315
H 0.5055042231459111 -1.9190446379192951 -2.0645913719083255
H 1.5656700482500165 0.32000731501100177 -2.229485812604803
H -0.016671933618102097 1.0709148314332104 -2.377322348953258
H 3.6867599429130435 -1.6970719555776574 0.7465809425838758
H 3.193982603025042 -2.147201372068408 2.374355314309581
H 2.042389852006068 -3.3558263677568836 -0.2052329629051754
H 1.510777307858195 -3.7681583541330435 1.4292081530246776
H 3.1644391570729824 -4.153799662902388 0.9119975440053719
H 2.7434241664531522 1.3738798627107096 0.7610803281479253
H 3.187412190192914 3.7002028025984357 1.3460168426704484
H 1.4805545667233266 5.452746424066343 0.9448892128884202
H -0.6972785335985159 4.83884180136134 -0.06923809896122624
H -1.1767612885263574 2.5163391460048765 -0.6674384713321064
*
