!RHF def2-SVP TightSCF PAL16 
*xyz 0 1
C 7.477080691142909 1.9244796892316356 -1.7093977758521002
O 6.459063867321645 1.237248472459735 -2.4239337552743705
C 5.5612387013339255 0.5087499159971611 -1.6944116100135809
C 5.582010348928671 0.34136594609499177 -0.3100221925414134
C 4.601068419589489 -0.4333959739000813 0.33249308627355145
C 3.5766228760927268 -1.0403285481699 -0.39977155894496735
N 2.555724531104165 -1.8315566724799712 0.20150662008461123
N 1.9094847640417438 -2.751894455034648 -0.5666123104618292
N 1.1288214098244929 -3.4889919959898994 0.20278756458666944
C 1.1901450206586943 -2.978860242103129 1.454313074881474
C 2.026221483509163 -1.8772208462531716 1.4884024124701851
C 2.269389967639924 -0.9700476216960898 2.6332176448373144
N 1.3826206958981109 0.17864763439400083 2.765946335463089
C 1.550160468613667 1.2805915028775559 1.818450378536448
C 0.658275755764666 1.2298670863480923 0.5682452218901958
N -0.7429310955805195 0.9317970279910909 0.8565334592054628
C -1.6771950982347616 1.3363425399851623 -0.1167571464027754
O -1.3821047242710163 2.224689191911905 -0.9224799111407643
C -3.0239807215505743 0.7174462386783481 -0.195617818497633
C -4.115006418580963 1.2543797810188948 -0.9409465768455555
C -5.155083136315577 0.36353299693995733 -0.8016606147555462
C -6.547949213354312 0.37575682549774836 -1.3499067469774562
C -7.589129002143021 0.3630763689772971 -0.23045921413549136
C -6.774288060726575 -0.7857271126068753 -2.3180178591535734
N -4.656647524272467 -0.6403351986897733 -0.02064890847239538
N -3.3846882747615674 -0.4553631387958386 0.3612034352001767
C -0.9741528292946505 -0.14347830774057346 1.8219737450445652
C -0.029466170088223095 -0.09542407395207307 3.040573089960847
C 3.577233131672764 -0.8972260414511999 -1.7963792876131102
C 4.553935183586982 -0.12557274508396762 -2.4233552173628907
F 4.50781272534386 0.0017702861743154052 -3.7582377686986037
H 8.086745094183836 2.469774579936329 -2.4363066600375007
H 7.048597750699087 2.6569936240904006 -1.017668902994972
H 8.133031454673787 1.222005884752931 -1.1850969066518124
H 6.36050104467595 0.7847853253386696 0.3035990165795855
H 4.724234032753861 -0.5822614249728271 1.396943263115601
H 0.6011741195774017 -3.3945746383296274 2.260036192596411
H 3.2991847316014677 -0.6254358949074295 2.6934428950222236
H 2.1687115727591064 -1.5666905345085311 3.551719900467521
H 1.3008446493611887 2.2031567281548496 2.3601506601667417
H 2.5996903860042484 1.3980652893660688 1.5272316854453583
H 0.7430710446806842 2.1875495395754583 0.0427277025137218
H 1.005036982634291 0.4594740372372315 -0.12659271187108243
H -4.113275350746412 2.1748426478574334 -1.51000402660608
H -6.681579068951701 1.3082105646190858 -1.9143620291563102
H -7.541328514965886 -0.5602110958470359 0.3580599497863015
H -8.60076071273378 0.4453472406669192 -0.6424068589745106
H -7.4369521336100215 1.2031527738776988 0.4564787513509461
H -7.772595262227666 -0.728050503449368 -2.7649886133166963
H -6.6874940713238935 -1.7556216195153211 -1.8153335849942551
H -6.0407295498143165 -0.7666294929863207 -3.131867746401235
H -5.130032645822165 -1.484092028732595 0.285694813706664
H -0.8742290235999127 -1.0922778045672181 1.2872049467336255
H -1.9908271456234141 -0.06675044131244703 2.2154336193949598
H -0.15077467456508922 -1.0058566550013806 3.640235265231968
H -0.3813259977797012 0.71886858320279 3.689010734701804
H 2.816793515257955 -1.3580932151763259 -2.4235170343444143
*
