!RHF def2-SVP TightSCF PAL16 
*xyz 0 1
O 0.15843398503044387 -0.26276540635956064 -1.8309299482097352
C -0.35576112554150746 -0.20785056684719347 -0.7204214284185534
O 0.27732274954725267 -0.552705607842455 0.43969759514060985
C 1.627512816530951 -1.0328390458359946 0.30230340494328384
C 2.6109392367574955 0.1448048946148757 0.2279457291105524
N 4.017985118917192 -0.2688313374030807 0.20607347030204182
C 4.481143643741494 -0.8430956198664223 1.4708742323854964
C 5.998553336359687 -0.7760960074526955 1.3590375620356774
C 6.278462020724882 0.298106088068985 0.3146832192315994
C 4.9138145717077455 0.8632091527921947 -0.042093949300437895
C -1.8149457357920378 0.2300266502250895 -0.44394906654227084
C -2.6133981604519363 -1.0362922226843745 -0.11398282248639315
C -2.82330700155224 -1.4591647913050867 1.2092201265659492
C -3.5241816883432584 -2.6359132973138784 1.48895064268978
C -4.011166301007547 -3.424513302826922 0.451506108290795
C -3.7856188470550713 -3.04434789943251 -0.8670618800565363
C -3.0852694412329265 -1.8684380976615633 -1.146829669632407
C -1.8344617588776986 1.3696754423793522 0.6342617166840474
C -2.3135232499836498 2.6177300272348094 -0.1359779074427508
C -3.8141980002943505 2.4748240528907957 -0.4249249415799107
C -3.8461033117683536 1.4032693338981528 -1.5197525660757885
C -2.356762211300735 1.0273443338925845 -1.6896920648073612
C -1.7020883949005716 2.404432624629025 -1.5129581862867825
H 1.8206228235669752 -1.6414253452448087 1.1915622968207666
H 1.720632505142867 -1.6959808874089113 -0.5663611573677846
H 2.4122592531446387 0.8374579701343207 1.0569721663094513
H 2.3901969092841133 0.7114453471106996 -0.6855685830784014
H 4.142891794847786 -1.8745464141771047 1.6092591513026315
H 4.148931429598347 -0.24817451113164066 2.3311946936045462
H 6.456113657477306 -0.5292791330900092 2.322672684095334
H 6.411302163277104 -1.735594501240298 1.0267566472176481
H 6.75053318852328 -0.1557074277675721 -0.5649139344188914
H 6.952139361662485 1.0722730009358137 0.6952145819856288
H 4.680476834369598 1.7150273475923654 0.6096932675724595
H 4.877766121926566 1.19850083378542 -1.0834395529234628
H -2.4277974554568216 -0.8945320673330032 2.049677829650236
H -3.679518401868318 -2.9411071447993304 2.5206473084193552
H -4.552675978444225 -4.340786871947672 0.6700401550618478
H -4.147126168094879 -3.666309380757267 -1.6819567655982295
H -2.9071671135145483 -1.614896699210742 -2.1902190515523867
H -2.5025920679915883 1.1821757756617157 1.479305829319187
H -0.8354001031486924 1.5668217419924524 1.039938871861163
H -2.053593103846181 3.5573843629009056 0.35567783633880995
H -4.387487626833077 2.1785792221217433 0.45919310759851284
H -4.232321103036978 3.4141549325196885 -0.803808880025944
H -4.2358125300804845 1.8346862529320687 -2.4496694768876925
H -4.494591025841473 0.5657158666474466 -1.2526710646014487
H -2.1444656418731047 0.5629393692434087 -2.656420659762999
H -0.6082311487190608 2.3819691962558083 -1.5019418445962083
H -2.038468825291218 3.1386397664666674 -2.2531909093520226
*
