!RHF def2-SVP TightSCF PAL16 
*xyz 0 1
O -0.44977874865912953 1.7744617216630074 -2.5075664247519627
C -0.08300640719668574 0.833372750649095 -1.8167141353669984
N 1.1894580682852722 0.6458378973855615 -1.353048532894883
C 1.164174403380844 -0.4673168210642809 -0.7150551775252992
N 2.155781277576279 -1.1204485364272596 -0.05485118410265064
C 3.5392793990136284 -0.7133729552756548 -0.2590003073790431
C 4.578723267245909 -1.000586805938062 0.7882366087061157
C 4.139491576771995 0.41175408012759557 0.5349287665331842
O -0.012197557160202722 -1.1396777417535333 -0.6711062721325245
C -0.9590010993765014 -0.32325021521706027 -1.377154442218107
C -2.1417163992983794 0.0732691035404002 -0.5199370688009528
C -2.238895339453282 -0.2845251324282213 0.834146542823738
C -3.3495528664464627 0.09041825010424434 1.5939867738570144
C -4.379111650922276 0.8259207847851745 1.0124266077868438
C -4.3003392823799125 1.1875064720232098 -0.32963673875103516
C -3.1915591170099593 0.8127893493986672 -1.0908788278487824
H 1.9500685639744224 -2.0859588273452934 0.17288506771326717
H 3.85491734626383 -0.8075521941041798 -1.2958977141209556
H 4.267792341078405 -1.4631545066040212 1.7172395775875133
H 5.568438494420897 -1.2897589595078387 0.4547684951820827
H 3.5195347218741224 0.8985608640966799 1.2786914412259658
H 4.820954662427134 1.079674551361306 0.02126381411556565
H -1.2919661017226765 -0.8882171660475113 -2.254699064792168
H -1.4514174624020981 -0.8591122122458604 1.3172304598865254
H -3.409605250190087 -0.19117128711522982 2.642287442883504
H -5.241125183940394 1.119746931009594 1.6055214270150875
H -5.100232277358046 1.7661514137307357 -0.7848777134385044
H -3.149109378797153 1.1146391911986158 -2.1369472608740203
*
