!RHF def2-SVP TightSCF PAL16 
*xyz 0 1
C 5.154857827933737 0.7024802073237679 -0.3750396216528938
N 4.058890484084208 0.10883129365537961 0.3964771162091458
C 4.228691823754893 -1.3450230068160947 0.45197415574231453
C 2.765040060572714 0.4847270970344568 -0.20504784478637003
C 1.546488857819936 0.14387075866499552 0.6656963778301377
O 0.3715762889723658 0.6470304171057775 0.02037239429319424
C -0.8302073706276484 0.34704343983231173 0.7489249119159697
C -1.305046126610681 -1.0594187185452615 0.41526314595842717
C -1.3873911009508186 -1.4996852408350674 -0.9157951206909166
C -1.8299143285414323 -2.7893237110922264 -1.2132733515801428
C -2.1974454006449937 -3.654692138350546 -0.18518552679138697
C -2.123759699144614 -3.231923012809186 1.1405763953478518
C -1.681484704562876 -1.9419823269825967 1.4405199212778466
C -1.8930451357822833 1.3995590898515538 0.446484344386856
C -2.956197849732312 1.5948821763559944 1.3462319567298773
C -3.9505405927157557 2.5411669490270716 1.0849429188611022
C -3.8928918488601782 3.299501420066084 -0.08154688177070503
Br -5.237963121090236 4.579552397173078 -0.4362883635257899
C -2.8527137478001405 3.1196195194957044 -0.9892675868363484
C -1.8597028338875585 2.1723583181018014 -0.7266384928405918
H 6.12163391871837 0.46390490385729194 0.08245874172298885
H 5.167592861717794 0.35149665927518875 -1.413392317544237
H 5.075294849435719 1.7953548106104718 -0.38005878486341016
H 4.149346005919236 -1.8092763030027832 -0.5376724247356965
H 5.208140103952447 -1.6011529861007432 0.8723205510615846
H 3.488081007021271 -1.8054094575709236 1.1131335593572447
H 2.7431049602227744 1.5707812525013722 -0.37006008128200757
H 2.6428559826715885 0.03481079848230849 -1.1997920725150686
H 1.6488207341633705 0.6158011468945714 1.6499014894921045
H 1.453793939083546 -0.9390016389728109 0.7941850705059772
H -0.6037967477815372 0.42411541791464236 1.8216356348651466
H -1.1032554309078706 -0.8325055725492065 -1.7271600810829666
H -1.889480314730379 -3.116482752504989 -2.2479467550967547
H -2.543788967319418 -4.658208533916539 -0.41785924525104184
H -2.413183952882749 -3.907313102216842 1.94155413087304
H -1.6331642125605108 -1.6307414448027961 2.481470893454906
H -3.018615740711471 1.0041201579005345 2.2576989903456823
H -4.763260841669776 2.6749261155427155 1.7936584374674496
H -2.803511443485224 3.706665465676466 -1.902213453383865
H -1.0538481930436796 2.0395401347250433 -1.4460470885186885
*
