!RHF def2-SVP TightSCF PAL16 
*xyz 0 1
C -2.247881677592282 3.8492079659366922 1.822820805759548
C -0.8729850281865356 3.6367668052652893 1.8609659649629022
C -0.3055585636515478 2.5969446584367404 1.1194777115172765
C -1.0941092799551155 1.748919750707089 0.3206708929655081
C -0.4834043395940984 0.5963524547315895 -0.4930892204827898
C -0.6352902698020434 -0.7976933030562917 0.1424581435548041
C -0.10196416607801677 -1.0677744034809047 1.41948712499579
C -0.22050462677818833 -2.3239326126024626 2.0209973278959135
C -0.8880983151052407 -3.348556892091193 1.3602975404217417
C -1.4425679395225364 -3.111606575286404 0.10715138025198409
C -1.3218197887313743 -1.8511813678205342 -0.4873687558280284
C -0.5654979023771687 0.7560627587497059 -2.008261036926928
C 0.7711662965601583 0.8885735784869057 -1.3354026335260125
C 1.806018127085805 -0.12301547797100369 -1.5931470603866702
N 1.9405125280269004 -0.6851261271785708 -2.7603066170150057
C 3.0807467501286987 -1.6243156162065342 -2.5458827426991104
C 3.309082029822536 -1.694121639918271 -1.0287201403323538
N 2.654885241844617 -0.48176579917863466 -0.5868674772498936
C -2.4808481752648084 1.9846822988750523 0.3062215045945815
C -3.0536057253156446 3.022201395350899 1.0460703429224159
H -2.6913351544984065 4.656860511223412 2.3989029675089766
H -0.24003225449677654 4.279175121656106 2.467382558229206
H 0.770595021861314 2.446101552719636 1.1654469437082593
H 0.4061638705278323 -0.27580436488147003 1.9659420152948084
H 0.19911848306408478 -2.495294501575196 3.0086975677173178
H -0.9871421665064479 -4.325897711184402 1.8246474370393597
H -1.9755825474104338 -3.90420702210813 -0.4116851717552899
H -1.7768144312986178 -1.6976289078960756 -1.462757601588887
H -1.0024266719669224 1.6601586237480122 -2.4194200040947846
H -0.7171504412028977 -0.1053125611367224 -2.6479447038392716
H 1.1740652116455303 1.8965227494645762 -1.3053953695328737
H 2.8477457908709662 -2.611113626958281 -2.9575906138415644
H 3.9646363214263403 -1.230074775032137 -3.0597696422330904
H 2.8104014624377736 -2.570287718735918 -0.6004734196851406
H 4.3700860898946665 -1.7140346127715462 -0.7666499748256693
H 2.2521668266651846 -0.5023706347343846 0.3412083510993025
H -3.1244695392356308 1.3422081053392487 -0.2915884505218816
H -4.12830104729241 3.1803779211123406 1.015202415676275
*
