!RHF def2-SVP TightSCF PAL16 
*xyz 0 1
O 1.0442898709654793 -2.3327276321854633 -0.29028190711375507
C 1.2675689513032873 -1.1764634945443238 0.031082873372980473
O 0.33017508024965614 -0.2542056747429908 0.36325147083259113
C -1.030768759380365 -0.7209011600396769 0.321922229836417
C -1.5404820879602894 -0.8632931498665387 -1.1353567055714207
N -2.734572219996826 -0.016795649504943826 -1.3994670762266659
C -3.8035726702711967 -0.3890530182227633 -0.4474800979153061
C -3.3619073896624245 -0.2040194308078219 1.0139392339857978
C -1.916298917052336 0.3135693855945006 1.048285533773454
C -1.8816049221442361 1.6387050834311891 0.26568114291178707
C -2.3614117366093987 1.3964240570016775 -1.1739849401853428
C 2.6319990195470266 -0.5876957810822457 0.10398214714129254
C 3.723754106787677 -1.4079292943414088 -0.21246044651733847
C 5.0239030474773845 -0.9015668247118249 -0.15982408199902715
C 5.240523652069696 0.42544830610345136 0.2086678908372227
C 4.160002621254999 1.24845401291355 0.5249045616139278
C 2.8574853184916784 0.745704664750005 0.47349113223775474
H -1.1040839875371222 -1.6804072797911043 0.8514415045252537
H -0.7553732292717937 -0.6154560386162781 -1.8603683583324158
H -1.803568124333566 -1.911329444137787 -1.3268446771951186
H -4.1041093449692925 -1.430425414386228 -0.6178951541087871
H -4.700486384761375 0.2110873257213246 -0.6455553997604866
H -3.435141064348908 -1.1568426884166565 1.551397639750182
H -4.028097885896008 0.5060411001935633 1.518239977472
H -1.5715900076323088 0.47547193537741556 2.075122957426703
H -0.868417517233391 2.0568049030428948 0.2589053990560928
H -2.5296644055548656 2.3765489125387314 0.7539861236689834
H -1.578185474183167 1.6904882042412808 -1.88393590616639
H -3.2177096998087524 2.0451695562403813 -1.3969164166530856
H 3.5653508438150143 -2.445273829330345 -0.5019287479492691
H 5.866487909866466 -1.542902161153772 -0.4068102867899561
H 6.253452352385443 0.819064625467697 0.24906890435681167
H 4.331746594382045 2.283211362595234 0.8116161260640596
H 2.030306460010406 1.4050945306691114 0.7236820418831287
*
