!RHF def2-SVP TightSCF PAL16 
*xyz 0 1
C -5.900473486674462 0.943642955688324 -0.4645097370437635
C -4.387845395734773 1.096127017711314 -0.6165066251002903
C -3.940893667740897 2.4624632520369754 -0.09898791063912336
C -3.6424558214176517 -0.026173518238512196 0.11433610880645956
O -4.215211032944822 -0.7780660588418874 0.8960078291134124
N -2.2968385136973004 -0.060370871036943184 -0.21432002496243688
C -1.3130954244693613 -0.9518345842775319 0.26108060613734196
C -1.5610929121728547 -1.981814866912786 1.166739186897572
C -0.5265846703102965 -2.827239689005904 1.5751840808310948
C 0.7664095573134635 -2.6457799054768434 1.0862896467632224
C 1.044998388547057 -1.6103561453274613 0.18368365372856968
C 2.4578168645292053 -1.415694366998573 -0.32427219888917147
C 3.4316904961698897 -0.9565887322904972 0.8061451784955609
N 4.3492844304615845 -0.1364030080269342 0.04788956118423709
C 5.0999450401222095 0.9517649725569445 0.641710636625965
C 5.636606196516867 1.7689042687031757 -0.5434830862894833
S 4.34678324520977 1.6360493951289452 -1.8417378315034254
C 3.674823358840099 0.2355425404624482 -1.0780183171212374
N 2.5863426451490703 -0.3803090757251907 -1.4193025201507177
C -0.008732043108470783 -0.7749349758473464 -0.22291135071955773
H -6.428954545585294 1.7129368153177642 -1.0372557387752528
H -6.231572091404339 -0.03471128822533304 -0.8295634631043022
H -6.208742217868676 1.0287320660747892 0.5834837763022267
H -4.14615735557248 1.0181878375276743 -1.6841863263995336
H -2.8726419464312767 2.628226253613079 -0.2722722687026841
H -4.115209312668116 2.5516835264637243 0.9791125276686273
H -4.4866750231372405 3.267887489084109 -0.6015951316159197
H -1.9750274235346208 0.6186046826253714 -0.8928769876131367
H -2.5525967063381048 -2.1618923254153195 1.5695341837561483
H -0.7377364750971274 -3.6330737109699918 2.27394912645999
H 1.551707126345172 -3.324580346443653 1.411512038021805
H 2.805005232100802 -2.3656679647507795 -0.7542058742167713
H 3.932586696745215 -1.8045105504091794 1.2830201429739192
H 2.9152037013248244 -0.3636757400599699 1.570798388765716
H 5.916899007684106 0.579634331143635 1.267725349776021
H 4.447254909404211 1.5760444578952715 1.264851586638697
H 6.5579597099288796 1.3234956128605058 -0.9323516056371906
H 5.827389875226624 2.810558739106648 -0.27271117376018744
H 0.19982958428885525 0.02319151027999456 -0.9330601911965906
*
