!RHF def2-SVP TightSCF PAL16 
*xyz 0 1
C 3.200150446934501 -2.7920847950045653 0.6642229362225809
C 2.969271158650762 -2.077955915766312 -0.6666222138749438
C 4.052698808160536 -2.4793331278248254 -1.6691652379396429
C 2.968683175421033 -0.5602082012345422 -0.44447854174615253
O 4.0055373458565215 0.08285803113936784 -0.6162766653859504
N 1.7772180891613094 -0.003602294848374131 0.0009208017094515971
C 0.46961828847488063 -0.6818536427573089 0.05802250068182797
C -0.540154377375559 0.29703958766820987 0.6921486488875555
C -1.8790246382085 0.35203598858774365 -0.05307995975909984
C -2.660512243584916 -0.9650971201815982 0.07518228089769145
N -3.862788773944402 -1.0006338727775101 -0.7714913080916477
C -4.883207515844699 -0.04453666208438812 -0.333672399177602
C -4.4322792091756575 -2.35199865708756 -0.7818897389142804
C 0.24049028207826267 1.5839010019549944 0.6595994668864463
C -0.2072053937711754 2.8554854734826445 1.0034725232162975
C 0.7091567920688133 3.9158358475481054 0.9547397006168363
N 0.2669371027518078 5.271112025777638 1.308758522552802
O -0.9148761413183122 5.41915115614944 1.6527893946802923
O 1.099441478104328 6.186550511612998 1.2446528382132316
C 2.0475267914810145 3.6972093064637104 0.5808294115234526
C 2.4815408812470863 2.4077075406376567 0.2507088373003784
C 1.57161984205628 1.3605846466350577 0.2912392325019252
H 2.448577625185252 -2.5182661768418666 1.41029784701278
H 3.164298485944419 -3.8786161204343257 0.5330398453166207
H 4.178537869645496 -2.5331245555196475 1.08487068029436
H 2.009185561226834 -2.38871951289392 -1.0900998442787742
H 3.9182043920292697 -1.9481280565501935 -2.617728476404626
H 4.011734745622124 -3.554235934311848 -1.874559743054986
H 5.05617026751121 -2.2449426131697625 -1.2968412543008863
H 0.540372836986193 -1.6041385410615638 0.6415552486642502
H 0.19719172844771962 -0.9494259185001822 -0.9703706008448364
H -0.7014324784541434 0.02588074674801763 1.743578554172964
H -2.479708546093652 1.1728924596268522 0.35494053744855636
H -1.7080253364952385 0.5858534000287844 -1.1123421740092554
H -2.9176522719279028 -1.1432610263744911 1.1276342566069657
H -1.9992147887913856 -1.7846256040608899 -0.23158410405152102
H -5.779280027011735 -0.12454384685024109 -0.960116992076279
H -4.534444401193808 0.9869200444622368 -0.44244849791774105
H -5.179495300659457 -0.20585398027243734 0.7090424999073194
H -5.299479201018836 -2.400618549199807 -1.450078943725377
H -3.7039513603668723 -3.0748229781017846 -1.1663599455677414
H -4.746245078397573 -2.6751458946957585 0.21733257071360362
H -1.2381350352042915 3.012439140208376 1.3086969887902817
H 2.7642284263465693 4.515799587871655 0.544574964943435
H 3.5187196974452566 2.2565171018012005 -0.03142242770505975
*
