!RHF def2-SVP TightSCF PAL16 
*xyz 0 1
C -3.9252681030871335 -1.87642343740568 -3.256933630197439
C -4.175176021899635 -1.5668465960862663 -1.783592362518279
O -4.961580673963614 -0.388121916164468 -1.7326154964033424
C -4.992592999755613 0.18721600773701172 -0.49127371942467596
C -6.059495622344969 1.063111631203151 -0.2704517853070226
C -6.171980931977002 1.7390044751253384 0.9410269836918284
C -5.207733940335969 1.5487193158573331 1.925810627687903
C -4.130584352536896 0.6832312939371469 1.6999522171841226
C -4.007887650500411 -0.013924001413914264 0.4880749013667367
N -2.907354878773426 -0.8748152492962324 0.20891440167278236
C -1.7221736582934513 -0.9069370762460884 1.0618094860611471
C -0.7943816182488695 0.3012168496104115 0.8426816948319337
O -1.0339783764857875 1.1646671851140489 -0.003212091825602153
N 0.33390506662705094 0.3948810073209096 1.6587622216268758
C 0.6357304280251305 -0.5258044067321382 2.7566825818413117
C 2.1261667735481318 -0.6282555576504504 3.0480519481927253
C 2.7653220438540997 0.7280819913634979 3.339370891750271
C 1.9781182775928787 1.9080335056538082 2.7656336538247404
C 1.2015653328448122 1.5771116279198323 1.4841404566069558
C 2.114438360283111 1.3783267690874041 0.3104162628845303
N 3.1138748883673997 0.538550883568679 0.1417650673112805
C 3.5297243738502937 0.8173399972234406 -1.1425826258177125
C 4.614019269648126 0.08979342130301293 -1.7778254418622257
C 5.367994662271464 -0.8535284629211344 -1.0706849278678028
C 6.400215949232555 -1.5401985024936813 -1.7087161429155098
C 6.647965551165465 -1.2608965370303225 -3.0426267623314733
N 5.94297249541172 -0.3606539677945929 -3.7631821638951104
C 4.942578869127379 0.29141703192190316 -3.1155398577838636
N 2.850428205292817 1.8178560693362147 -1.7269513758185009
O 1.9041113328668553 2.183686382844356 -0.7721443486557005
C -2.8536218640901483 -1.5593493720041232 -1.0022605681878474
O -1.8686075436091718 -2.2048774696328866 -1.3646989942203518
H -3.315265730859338 -1.0918695591291645 -3.7188205766781826
H -4.869660381634815 -1.9112725120744518 -3.8103129793200154
H -3.4099115802916646 -2.8329827968819687 -3.3898538368240536
H -4.775858302539776 -2.387303098454651 -1.366810252661314
H -6.799735387278213 1.2194138808001034 -1.0510339485711295
H -7.002057042105769 2.420260060804609 1.110916138892964
H -5.285051335929366 2.0844922668485757 2.8693656150247744
H -3.4007192894835905 0.5883540127361798 2.496095777593355
H -2.0256225639635135 -0.9754600948504888 2.1106030710119534
H -1.1438894384825338 -1.8103731756846864 0.8353932137649341
H 0.24877548478179407 -1.5237249380605755 2.532738714856963
H 0.0985347794508411 -0.1591547381566385 3.639950232501806
H 2.626751572169193 -1.0847269006469322 2.1851881887071514
H 2.2989310479143477 -1.306668470250983 3.8922637808399
H 2.860690760115732 0.8650442850449277 4.424389962866838
H 3.7897095430047942 0.7324207235338632 2.945984165467879
H 1.254481104171469 2.228807552820204 3.527781985957844
H 2.6536700868725123 2.7583092060814427 2.6083810326993615
H 0.5560320578843019 2.4396927202950787 1.2692017912071938
H 5.156006445174058 -1.0560144331018004 -0.02352442963215767
H 6.993680135645407 -2.27539126393604 -1.1780469136605562
H 7.440341359678709 -1.7688674489156926 -3.5844022981787713
H 4.393453031593587 0.9954018279241087 -3.73738279773557
*
