!RHF def2-SVP TightSCF PAL16 
*xyz 0 1
C -0.3106375130641019 -1.670412403655166 -2.4583555771555754
C -1.1806844126939553 -0.6832170787987858 -1.6859695019044232
C -0.8891275624197622 -0.6057470335677096 -0.16779335694924877
C -1.2694047374488182 -1.9419620383166105 0.5032666735083878
C -1.6567140134704499 0.5560107374524729 0.549469813332767
N -3.12993672389947 0.41377888422088194 0.5704201061664541
C -3.7561243430789193 1.2371513950789979 -0.46936833366118097
C -3.6666609377495005 0.8011913789421621 1.8778648798430861
O 0.5443979707415862 -0.48620266060128015 0.08864242007938618
C 1.232873238867091 0.5984344545204492 -0.3365599753735276
O 0.7779231053716841 1.5560394827680255 -0.9394664605616673
C 2.6690699657896877 0.4755294603426592 0.03596214710685609
C 3.5346373141940464 1.5217073528614242 -0.312968270659621
C 4.890554819404073 1.4537706833622996 0.013564145728678294
C 5.389595747123929 0.3413604622368135 0.6895604319060882
C 4.536166519469864 -0.7043617865369795 1.039945303184609
C 3.1788089995773423 -0.64018129737162 0.7150561602539751
H 0.7530744808293789 -1.434823687848153 -2.3631897432260365
H -0.5638075354978533 -1.6322204909575833 -3.5231279965683697
H -0.4705309083287339 -2.698014881063606 -2.12033237516134
H -2.2296460083955894 -0.9562956927496873 -1.8502985781718553
H -1.0417230663935524 0.3039819959307618 -2.1410889743021935
H -1.131207473784859 -1.8816250619178507 1.589480136495067
H -0.6192110611118262 -2.757063617896516 0.16710948978551304
H -2.3080286727467136 -2.2236979922538453 0.3032109374506059
H -1.3757128600407396 1.5311260629037058 0.13473014886971632
H -1.2676883880009666 0.5885110540931454 1.5782626340739814
H -3.5743852335900765 2.3072393450023423 -0.31449466055372033
H -4.839686049938903 1.0732996712567884 -0.4819517141897722
H -3.393184649492151 0.9728552166091613 -1.4661201247271762
H -4.755419915852242 0.6786698239698377 1.9000938299007106
H -3.2657316798764193 0.15159882191507612 2.664131354537509
H -3.429551641470847 1.8409169573695927 2.13140972578114
H 3.1554979782755863 2.394357461445991 -0.8417635303921285
H 5.5562095111163154 2.268648893531152 -0.2604070978921514
H 6.445749212158474 0.288888203096647 0.943145118153348
H 4.927759179939499 -1.571550213512728 1.5663216436282787
H 2.53248734548906 -1.4676918618618406 0.9968662926212414
*
