!RHF def2-SVP TightSCF PAL16 
*xyz 0 1
C 6.727133810158022 -1.2705952218202856 1.1653285364434365
N 5.289296993241355 -1.193545097169898 1.2088748296019503
C 4.635960318595676 -0.015928307884289512 0.8904205730242154
O 5.229182858836773 1.034619134718169 0.6577258177129953
C 3.105953200570935 -0.1426509819778373 0.8851221599262931
O 2.437355810809423 0.8210744855940864 0.07412579238676763
C 2.4364696771032803 0.4434922977258548 -1.242705797933485
C 3.273427572802996 1.1273790529295777 -2.1214808296246397
C 3.2829970422004435 0.7861830294172102 -3.475174915951023
C 2.4511889401862836 -0.23073969980780903 -3.949314226943929
C 1.5964832927755248 -0.9003658565272162 -3.0732274603438703
C 1.573622984651705 -0.5446714114154163 -1.726616656006681
O 0.7311763594284667 -1.2216636586145067 -0.8874925215947191
C -0.4649366803423405 -0.4562315904499241 -0.6506581910970601
C -1.0367487039592562 -0.8483311108127117 0.718702715108242
O -1.5951810697795066 -2.1711205146663395 0.6560084270073251
C -2.1400127263573556 0.11792100268656161 1.2016986597698875
N -3.3466295132882826 -0.016608451817359617 0.3646335939153943
C -4.546304457396873 0.6951917898360396 0.8524149690886403
C -4.308932088399878 2.208129457758398 0.9816168438454581
C -5.0416471605876225 0.12158853465082033 2.1900550071241582
C -5.642997244599994 0.4607499260721026 -0.20587541990533476
H 7.038772309927594 -1.3996729792249563 0.12474147749942845
H 7.047451379495312 -2.1332895012574653 1.7562896536873456
H 7.173154155973944 -0.3570667633477289 1.567467124412298
H 4.767347689138587 -2.05967907961846 1.1652957477650534
H 2.813087076397182 -1.1685379293299716 0.6355796562208246
H 2.778634388831017 0.03258250567290942 1.9176936111625416
H 3.9281156553052363 1.912330032783349 -1.7499237806877732
H 3.9454695387599754 1.3117778878151598 -4.15915426211672
H 2.466036468292983 -0.4949767273862121 -5.003269020832106
H 0.9502075751423605 -1.6933037084327915 -3.4377611814333413
H -1.1733669900577088 -0.7015202117865251 -1.4515630334614975
H -0.2647283404097491 0.6233523805745953 -0.6668697352088955
H -0.22825098925773635 -0.8823011234162013 1.4575305402150422
H -2.5298996316400246 -2.037354605514773 0.39789331258365057
H -2.3758553040224495 -0.15895097999312524 2.23418239881272
H -1.7625171741557948 1.1453729821448568 1.1970518751706156
H -3.134797434789124 0.31913185329353827 -0.5780244725305793
H -3.9238465901061677 2.632710027135633 0.04733739658156711
H -5.243342511299428 2.7311579503096532 1.219244187298367
H -3.5957997256102825 2.4445315185574374 1.778948076533725
H -4.3588434308261155 0.3488680575424036 3.015927446774385
H -6.017634122621741 0.5440065789275061 2.4578191974299983
H -5.159678343122855 -0.9678710543462989 2.1376173066553954
H -5.8503157566142105 -0.6085704091424307 -0.337248299533579
H -6.5823025599807234 0.9448975083282034 0.08545605423034394
H -5.353956549403627 0.8684989812856344 -1.1822793543056218
*
