!RHF def2-SVP TightSCF PAL16 
*xyz 0 1
C -2.40258298180355 1.9011594803894774 1.7595063052950388
C -1.2094327023997862 1.3303908212426796 0.9763934162864375
C 0.08459045202357039 1.5158714452909914 1.7908366978924237
C 1.3165180952598907 1.6161226666674384 0.9090263209196333
O 2.0243492371769674 2.617710515047553 0.9501039331408613
N 1.5427194366998929 0.48481978751956023 0.15340928441567542
C 2.6079308806680817 0.23200340963288527 -0.7423882367037056
C 3.5739373788747177 1.1908466649261935 -1.0655439320710505
C 4.598507238108059 0.8974194902667175 -1.9727958072893
C 4.66641383786392 -0.36024117646819886 -2.5638511455214035
Cl 5.92488941142931 -0.7142094027249911 -3.680846893489078
C 3.7235220751103455 -1.3332529992428792 -2.2536726132019784
C 2.7027312442673255 -1.036731577378577 -1.3470742446313368
Cl 1.5811830319749252 -2.297161507323985 -0.9669888953485493
N -1.3681626726466012 -0.083510526524153 0.5358055881474023
C -1.8448409998386526 -0.9921524409686974 1.5934738964191766
C -1.8648504930602863 -2.442922287329374 1.1110295122887395
C -2.716374407943528 -2.596410357920249 -0.14044201232512646
C -2.294415927260058 -1.5935280818311133 -1.2039952466395099
C -2.244479391768915 -0.1711804351228613 -0.6478921891204997
H -2.5061257810134783 1.4339483843134981 2.7426898873881833
H -2.2667375534526277 2.9772505334972967 1.9253292385746341
H -3.3440831157096134 1.7788046325907578 1.2139621339688493
H -1.0991078117794404 1.9516853958988456 0.07524502257212633
H 0.24358993654447866 0.7206345644678465 2.527669902384303
H 0.03217781787352865 2.45199245580593 2.362128377777342
H 0.8417745539970954 -0.25539441480517316 0.24042212311873468
H 3.5543023705531933 2.1890776473615343 -0.638897336275474
H 5.334197795437478 1.6608763655140346 -2.2142599345864444
H 3.782338180956955 -2.3174640159394393 -2.7111241015218357
H -2.8531092061175993 -0.7199304027404685 1.930275086785882
H -1.185780207036514 -0.9440232518036009 2.4672524812206484
H -2.2571128007144123 -3.0902409262373243 1.9033725081220179
H -0.8413451702317144 -2.778446928172329 0.9055692820865993
H -3.7709322286284985 -2.4338562925557006 0.11129606698438163
H -2.6346410752246707 -3.617125056993102 -0.5329276246549826
H -1.311385650919789 -1.8698093751875677 -1.6000870718173879
H -2.993378065189714 -1.6373420433804238 -2.0461541188396435
H -3.2632586339324483 0.1593109676561995 -0.4139198854998225
H -1.8635360981505897 0.48232694165857726 -1.4419357762517322
*
