!RHF def2-SVP TightSCF PAL16 
*xyz 0 1
C -5.092803280367678 -0.5110019492631376 -0.3242665694582217
C -3.5982682429606445 -0.47274249443085337 -0.6206151523796501
C -2.823870458055431 0.4217368065347481 0.36659966371520525
C -3.1843923216308117 1.886243777280968 0.17670097562070555
O -3.3892425475701096 2.4637173008446793 -0.8794866387757824
O -3.2537940116413693 2.5624312882702576 1.3429811926124329
C -1.3220385915089026 0.21260737990467504 0.24855493489126923
C -0.5900290016080608 -0.24929156531279223 1.3499112258548345
C 0.7920113351558884 -0.4458902891516239 1.2564109796451923
C 1.4836554120943335 -0.18720017543096298 0.0633286538331049
C 2.937966166888345 -0.3954036614934772 -0.03273382662372105
C 3.489377100273095 -1.1965777007716822 -1.0466778351690853
C 4.8697407291439525 -1.3954967565032605 -1.1383520369359144
C 5.723382716175029 -0.7946373768212112 -0.21683539483388475
C 5.198168358133493 0.003983182975674892 0.7957319794196593
C 3.8174438583436316 0.20085765977161588 0.8865208801821789
C 0.7444858356560862 0.27785809939341105 -1.0346868764946628
C -0.6373222223559986 0.47655139190826706 -0.9455056193435707
H -5.2822085646381 -0.8762862592618252 0.6900958566761367
H -5.597639276168108 -1.1836327697618219 -1.0250266932224723
H -5.546591540465768 0.47958900391521203 -0.4245539882263495
H -3.453775358772489 -0.134132336183113 -1.6539801977913817
H -3.212878587693491 -1.4991295621733804 -0.5688064814983098
H -3.1438187736390875 0.1383203849238657 1.378987567248448
H -3.4484660962745477 3.483262074190993 1.0694993322116682
H -1.0864773993888357 -0.4631529297185707 2.29420113074014
H 1.3287535656419163 -0.8171852357769318 2.1273993645439777
H 2.839344844880961 -1.6843123056377975 -1.7703862732986868
H 5.2755343407321735 -2.021695234945581 -1.928511277370634
H 6.796848616973274 -0.9483097437664691 -0.2879734046029465
H 5.861408081058206 0.477538413261482 1.5147470384289998
H 3.4288657861521927 0.8382680218055065 1.6782507022110853
H 1.2464960544501504 0.5047804081067889 -1.9733955632090288
H -1.1698665270143802 0.8483331533164806 -1.8194990673334854
*
