!RHF def2-SVP TightSCF PAL16 
*xyz 0 1
C -1.1036271048403326 0.08310524971667553 3.3217911457225062
C -0.6928367542187787 0.4050066601397822 1.8804893824025588
C -1.8366883268858019 0.020046002126105106 0.9200422559372065
C -1.6702962991599344 0.6294687330618406 -0.48166648546555263
N -2.7587407918564333 0.3789995889966984 -1.4423374667079347
C -2.8957801598747848 -1.0355163694426912 -1.7772305471448064
C -4.035286174816814 0.9507988954150884 -1.029037178524735
N 0.5227867998361129 -0.36674492397404795 1.605945800572844
C 1.479211747582775 0.15271239133234274 0.6977634955702324
C 1.9484310379880942 1.4686028411603798 0.8077305882334731
C 2.9046007581788227 1.9462453049978394 -0.07783346715139762
O 3.3196724974147327 3.2368220488230763 0.06999207661810647
C 3.4209365715827444 1.1290629951153317 -1.0742046946092032
C 2.9769576787773007 -0.19873351004326012 -1.1834144957262664
C 3.4789070127302852 -1.0548358771538848 -2.173425940822859
C 3.0164385414411163 -2.361602450743369 -2.2600734814418293
C 2.0613488007074596 -2.771946728135079 -1.3515363538434177
N 1.551074675936011 -1.9788548812177442 -0.385147003759055
C 2.003738529337879 -0.7053911792666596 -0.2923894080763437
H -1.3189561007583386 -0.98417727638114 3.44706890266937
H -1.996436610382343 0.6478357351666776 3.610061421005911
H -0.30091611402977175 0.34348174958642813 4.020788201659713
H -0.5204092957994125 1.4857323724316809 1.8302121121303994
H -2.779403175267151 0.3780549769322291 1.3504311729012382
H -1.910895068137787 -1.0720006253090524 0.8528921716578448
H -1.5414213133305208 1.7154505657049668 -0.386565182661896
H -0.7425402419967204 0.2686315626710307 -0.9368815044519727
H -3.2576890930973503 -1.6351457256054993 -0.9352568673703416
H -3.5994896143448427 -1.162189491992044 -2.607701887173038
H -1.9390748529785329 -1.450708875876595 -2.113252442267873
H -4.7608533717115975 0.8885227467846905 -1.8479804676308549
H -3.9259407102087844 2.0142594307616912 -0.7896226136210689
H -4.466239882871326 0.4416659964810887 -0.1605087314793739
H 0.33063717295741185 -1.334566486930484 1.3211214123936195
H 1.5915142202196744 2.120311921126553 1.5986285063556993
H 3.9936504918848965 3.4320758520977255 -0.6013734399266958
H 4.168335197014923 1.508854711166559 -1.764167348811199
H 4.229060558049786 -0.7091469043106007 -2.880007888455339
H 3.390915677974398 -3.0409791726857485 -3.0170908322562253
H 1.665303086956518 -3.783207852728699 -1.3750500183222465
*
