!RHF def2-SVP TightSCF PAL16 
*xyz 0 1
C -0.5051480096847022 -2.283589644086047 -0.1270065806481754
N -1.1460949885021643 -0.9732412614512728 -0.09951937381762012
C -2.4996242935869466 -0.937182242380085 -0.43893090638133486
O -3.185357409730082 -1.94634221323232 -0.5840243954753764
C -3.1116946643544052 0.43139240591057165 -0.6697155954311126
C -2.729972298837197 1.3989245800566423 0.42455851955656265
S -1.006335791076284 1.8065100546440291 0.324906198142278
O -0.5746128052037347 2.057785833956423 1.6874231400473685
O -0.8715365082861193 2.8291550504517473 -0.697957997352146
C -0.3186118856059331 0.23436711669910057 -0.33417839424062545
C 1.1373834467139696 0.14413534297217434 0.10162384451294056
C 1.501838717763411 -0.11185060880560586 1.4358305340747233
C 2.8460897255573814 -0.19540684830771907 1.8082239357996444
C 3.841729325406946 -0.025550457180970543 0.8510008567340991
Cl 5.496493493047807 -0.13233326098336975 1.3075472367133505
C 3.504333646947733 0.2292469192515984 -0.4754853049963153
C 2.1599974044166466 0.31427681168574606 -0.8489447889917134
H -0.045080074856266514 -2.4306138515330358 -1.1088936707116872
H 0.24895019527447812 -2.356899063812095 0.6581546764420952
H -1.2285163785614255 -3.086831463896343 0.040938366073309945
H -4.20140130813494 0.3121685779366045 -0.672381910567798
H -2.814589850339514 0.7878855723296329 -1.661923677298566
H -3.2927794598361757 2.333562968362762 0.3442155645855958
H -2.9094055752949877 0.9641226060585075 1.4135676865288982
H -0.34759993895238217 0.3759998684492697 -1.4241254617032255
H 0.7391967702660975 -0.2408895598821841 2.203424742894022
H 3.1063981078052123 -0.38672141785539854 2.846178141947734
H 4.282086343168436 0.36696354527290653 -1.2225453013884051
H 1.92386406447461 0.520954639368713 -1.8918319866296938
*
